p cnf 1004 2103
1 2 3 4 5 0
-481 0
-1 482 0
-2 482 0
-1 -2 483 0
-3 484 0
-4 484 0
-3 -4 485 0
-5 486 0
-481 486 0
-5 -481 487 0
-484 488 0
-486 488 0
-484 -486 489 0
-485 490 0
-487 490 0
-485 -487 491 0
-489 492 0
-490 492 0
-489 -490 493 0
-482 494 0
-488 494 0
-482 -488 495 0
-483 496 0
-492 496 0
-483 -492 497 0
-495 498 0
-496 498 0
-495 -496 499 0
-498 0
46 47 48 49 50 0
-500 0
-46 501 0
-47 501 0
-46 -47 502 0
-48 503 0
-49 503 0
-48 -49 504 0
-50 505 0
-500 505 0
-50 -500 506 0
-503 507 0
-505 507 0
-503 -505 508 0
-504 509 0
-506 509 0
-504 -506 510 0
-508 511 0
-509 511 0
-508 -509 512 0
-501 513 0
-507 513 0
-501 -507 514 0
-502 515 0
-511 515 0
-502 -511 516 0
-514 517 0
-515 517 0
-514 -515 518 0
-517 0
91 92 93 94 95 0
-519 0
-91 520 0
-92 520 0
-91 -92 521 0
-93 522 0
-94 522 0
-93 -94 523 0
-95 524 0
-519 524 0
-95 -519 525 0
-522 526 0
-524 526 0
-522 -524 527 0
-523 528 0
-525 528 0
-523 -525 529 0
-527 530 0
-528 530 0
-527 -528 531 0
-520 532 0
-526 532 0
-520 -526 533 0
-521 534 0
-530 534 0
-521 -530 535 0
-533 536 0
-534 536 0
-533 -534 537 0
-536 0
6 7 8 9 10 0
-538 0
-6 539 0
-7 539 0
-6 -7 540 0
-8 541 0
-9 541 0
-8 -9 542 0
-10 543 0
-538 543 0
-10 -538 544 0
-541 545 0
-543 545 0
-541 -543 546 0
-542 547 0
-544 547 0
-542 -544 548 0
-546 549 0
-547 549 0
-546 -547 550 0
-539 551 0
-545 551 0
-539 -545 552 0
-540 553 0
-549 553 0
-540 -549 554 0
-552 555 0
-553 555 0
-552 -553 556 0
-555 0
51 52 53 54 55 0
-557 0
-51 558 0
-52 558 0
-51 -52 559 0
-53 560 0
-54 560 0
-53 -54 561 0
-55 562 0
-557 562 0
-55 -557 563 0
-560 564 0
-562 564 0
-560 -562 565 0
-561 566 0
-563 566 0
-561 -563 567 0
-565 568 0
-566 568 0
-565 -566 569 0
-558 570 0
-564 570 0
-558 -564 571 0
-559 572 0
-568 572 0
-559 -568 573 0
-571 574 0
-572 574 0
-571 -572 575 0
-574 0
96 97 98 99 100 0
-576 0
-96 577 0
-97 577 0
-96 -97 578 0
-98 579 0
-99 579 0
-98 -99 580 0
-100 581 0
-576 581 0
-100 -576 582 0
-579 583 0
-581 583 0
-579 -581 584 0
-580 585 0
-582 585 0
-580 -582 586 0
-584 587 0
-585 587 0
-584 -585 588 0
-577 589 0
-583 589 0
-577 -583 590 0
-578 591 0
-587 591 0
-578 -587 592 0
-590 593 0
-591 593 0
-590 -591 594 0
-593 0
11 12 13 14 15 0
-595 0
-11 596 0
-12 596 0
-11 -12 597 0
-13 598 0
-14 598 0
-13 -14 599 0
-15 600 0
-595 600 0
-15 -595 601 0
-598 602 0
-600 602 0
-598 -600 603 0
-599 604 0
-601 604 0
-599 -601 605 0
-603 606 0
-604 606 0
-603 -604 607 0
-596 608 0
-602 608 0
-596 -602 609 0
-597 610 0
-606 610 0
-597 -606 611 0
-609 612 0
-610 612 0
-609 -610 613 0
-612 0
56 57 58 59 60 0
-614 0
-56 615 0
-57 615 0
-56 -57 616 0
-58 617 0
-59 617 0
-58 -59 618 0
-60 619 0
-614 619 0
-60 -614 620 0
-617 621 0
-619 621 0
-617 -619 622 0
-618 623 0
-620 623 0
-618 -620 624 0
-622 625 0
-623 625 0
-622 -623 626 0
-615 627 0
-621 627 0
-615 -621 628 0
-616 629 0
-625 629 0
-616 -625 630 0
-628 631 0
-629 631 0
-628 -629 632 0
-631 0
101 102 103 104 105 0
-633 0
-101 634 0
-102 634 0
-101 -102 635 0
-103 636 0
-104 636 0
-103 -104 637 0
-105 638 0
-633 638 0
-105 -633 639 0
-636 640 0
-638 640 0
-636 -638 641 0
-637 642 0
-639 642 0
-637 -639 643 0
-641 644 0
-642 644 0
-641 -642 645 0
-634 646 0
-640 646 0
-634 -640 647 0
-635 648 0
-644 648 0
-635 -644 649 0
-647 650 0
-648 650 0
-647 -648 651 0
-650 0
16 17 18 19 20 0
-652 0
-16 653 0
-17 653 0
-16 -17 654 0
-18 655 0
-19 655 0
-18 -19 656 0
-20 657 0
-652 657 0
-20 -652 658 0
-655 659 0
-657 659 0
-655 -657 660 0
-656 661 0
-658 661 0
-656 -658 662 0
-660 663 0
-661 663 0
-660 -661 664 0
-653 665 0
-659 665 0
-653 -659 666 0
-654 667 0
-663 667 0
-654 -663 668 0
-666 669 0
-667 669 0
-666 -667 670 0
-669 0
61 62 63 64 65 0
-671 0
-61 672 0
-62 672 0
-61 -62 673 0
-63 674 0
-64 674 0
-63 -64 675 0
-65 676 0
-671 676 0
-65 -671 677 0
-674 678 0
-676 678 0
-674 -676 679 0
-675 680 0
-677 680 0
-675 -677 681 0
-679 682 0
-680 682 0
-679 -680 683 0
-672 684 0
-678 684 0
-672 -678 685 0
-673 686 0
-682 686 0
-673 -682 687 0
-685 688 0
-686 688 0
-685 -686 689 0
-688 0
106 107 108 109 110 0
-690 0
-106 691 0
-107 691 0
-106 -107 692 0
-108 693 0
-109 693 0
-108 -109 694 0
-110 695 0
-690 695 0
-110 -690 696 0
-693 697 0
-695 697 0
-693 -695 698 0
-694 699 0
-696 699 0
-694 -696 700 0
-698 701 0
-699 701 0
-698 -699 702 0
-691 703 0
-697 703 0
-691 -697 704 0
-692 705 0
-701 705 0
-692 -701 706 0
-704 707 0
-705 707 0
-704 -705 708 0
-707 0
21 22 23 24 25 0
-709 0
-21 710 0
-22 710 0
-21 -22 711 0
-23 712 0
-24 712 0
-23 -24 713 0
-25 714 0
-709 714 0
-25 -709 715 0
-712 716 0
-714 716 0
-712 -714 717 0
-713 718 0
-715 718 0
-713 -715 719 0
-717 720 0
-718 720 0
-717 -718 721 0
-710 722 0
-716 722 0
-710 -716 723 0
-711 724 0
-720 724 0
-711 -720 725 0
-723 726 0
-724 726 0
-723 -724 727 0
-726 0
66 67 68 69 70 0
-728 0
-66 729 0
-67 729 0
-66 -67 730 0
-68 731 0
-69 731 0
-68 -69 732 0
-70 733 0
-728 733 0
-70 -728 734 0
-731 735 0
-733 735 0
-731 -733 736 0
-732 737 0
-734 737 0
-732 -734 738 0
-736 739 0
-737 739 0
-736 -737 740 0
-729 741 0
-735 741 0
-729 -735 742 0
-730 743 0
-739 743 0
-730 -739 744 0
-742 745 0
-743 745 0
-742 -743 746 0
-745 0
111 112 113 114 115 0
-747 0
-111 748 0
-112 748 0
-111 -112 749 0
-113 750 0
-114 750 0
-113 -114 751 0
-115 752 0
-747 752 0
-115 -747 753 0
-750 754 0
-752 754 0
-750 -752 755 0
-751 756 0
-753 756 0
-751 -753 757 0
-755 758 0
-756 758 0
-755 -756 759 0
-748 760 0
-754 760 0
-748 -754 761 0
-749 762 0
-758 762 0
-749 -758 763 0
-761 764 0
-762 764 0
-761 -762 765 0
-764 0
26 27 28 29 30 0
-766 0
-26 767 0
-27 767 0
-26 -27 768 0
-28 769 0
-29 769 0
-28 -29 770 0
-30 771 0
-766 771 0
-30 -766 772 0
-769 773 0
-771 773 0
-769 -771 774 0
-770 775 0
-772 775 0
-770 -772 776 0
-774 777 0
-775 777 0
-774 -775 778 0
-767 779 0
-773 779 0
-767 -773 780 0
-768 781 0
-777 781 0
-768 -777 782 0
-780 783 0
-781 783 0
-780 -781 784 0
-783 0
71 72 73 74 75 0
-785 0
-71 786 0
-72 786 0
-71 -72 787 0
-73 788 0
-74 788 0
-73 -74 789 0
-75 790 0
-785 790 0
-75 -785 791 0
-788 792 0
-790 792 0
-788 -790 793 0
-789 794 0
-791 794 0
-789 -791 795 0
-793 796 0
-794 796 0
-793 -794 797 0
-786 798 0
-792 798 0
-786 -792 799 0
-787 800 0
-796 800 0
-787 -796 801 0
-799 802 0
-800 802 0
-799 -800 803 0
-802 0
116 117 118 119 120 0
-804 0
-116 805 0
-117 805 0
-116 -117 806 0
-118 807 0
-119 807 0
-118 -119 808 0
-120 809 0
-804 809 0
-120 -804 810 0
-807 811 0
-809 811 0
-807 -809 812 0
-808 813 0
-810 813 0
-808 -810 814 0
-812 815 0
-813 815 0
-812 -813 816 0
-805 817 0
-811 817 0
-805 -811 818 0
-806 819 0
-815 819 0
-806 -815 820 0
-818 821 0
-819 821 0
-818 -819 822 0
-821 0
31 32 33 34 35 0
-823 0
-31 824 0
-32 824 0
-31 -32 825 0
-33 826 0
-34 826 0
-33 -34 827 0
-35 828 0
-823 828 0
-35 -823 829 0
-826 830 0
-828 830 0
-826 -828 831 0
-827 832 0
-829 832 0
-827 -829 833 0
-831 834 0
-832 834 0
-831 -832 835 0
-824 836 0
-830 836 0
-824 -830 837 0
-825 838 0
-834 838 0
-825 -834 839 0
-837 840 0
-838 840 0
-837 -838 841 0
-840 0
76 77 78 79 80 0
-842 0
-76 843 0
-77 843 0
-76 -77 844 0
-78 845 0
-79 845 0
-78 -79 846 0
-80 847 0
-842 847 0
-80 -842 848 0
-845 849 0
-847 849 0
-845 -847 850 0
-846 851 0
-848 851 0
-846 -848 852 0
-850 853 0
-851 853 0
-850 -851 854 0
-843 855 0
-849 855 0
-843 -849 856 0
-844 857 0
-853 857 0
-844 -853 858 0
-856 859 0
-857 859 0
-856 -857 860 0
-859 0
121 122 123 124 125 0
-861 0
-121 862 0
-122 862 0
-121 -122 863 0
-123 864 0
-124 864 0
-123 -124 865 0
-125 866 0
-861 866 0
-125 -861 867 0
-864 868 0
-866 868 0
-864 -866 869 0
-865 870 0
-867 870 0
-865 -867 871 0
-869 872 0
-870 872 0
-869 -870 873 0
-862 874 0
-868 874 0
-862 -868 875 0
-863 876 0
-872 876 0
-863 -872 877 0
-875 878 0
-876 878 0
-875 -876 879 0
-878 0
36 37 38 39 40 0
-880 0
-36 881 0
-37 881 0
-36 -37 882 0
-38 883 0
-39 883 0
-38 -39 884 0
-40 885 0
-880 885 0
-40 -880 886 0
-883 887 0
-885 887 0
-883 -885 888 0
-884 889 0
-886 889 0
-884 -886 890 0
-888 891 0
-889 891 0
-888 -889 892 0
-881 893 0
-887 893 0
-881 -887 894 0
-882 895 0
-891 895 0
-882 -891 896 0
-894 897 0
-895 897 0
-894 -895 898 0
-897 0
81 82 83 84 85 0
-899 0
-81 900 0
-82 900 0
-81 -82 901 0
-83 902 0
-84 902 0
-83 -84 903 0
-85 904 0
-899 904 0
-85 -899 905 0
-902 906 0
-904 906 0
-902 -904 907 0
-903 908 0
-905 908 0
-903 -905 909 0
-907 910 0
-908 910 0
-907 -908 911 0
-900 912 0
-906 912 0
-900 -906 913 0
-901 914 0
-910 914 0
-901 -910 915 0
-913 916 0
-914 916 0
-913 -914 917 0
-916 0
126 127 128 129 130 0
-918 0
-126 919 0
-127 919 0
-126 -127 920 0
-128 921 0
-129 921 0
-128 -129 922 0
-130 923 0
-918 923 0
-130 -918 924 0
-921 925 0
-923 925 0
-921 -923 926 0
-922 927 0
-924 927 0
-922 -924 928 0
-926 929 0
-927 929 0
-926 -927 930 0
-919 931 0
-925 931 0
-919 -925 932 0
-920 933 0
-929 933 0
-920 -929 934 0
-932 935 0
-933 935 0
-932 -933 936 0
-935 0
41 42 43 44 45 0
-937 0
-41 938 0
-42 938 0
-41 -42 939 0
-43 940 0
-44 940 0
-43 -44 941 0
-45 942 0
-937 942 0
-45 -937 943 0
-940 944 0
-942 944 0
-940 -942 945 0
-941 946 0
-943 946 0
-941 -943 947 0
-945 948 0
-946 948 0
-945 -946 949 0
-938 950 0
-944 950 0
-938 -944 951 0
-939 952 0
-948 952 0
-939 -948 953 0
-951 954 0
-952 954 0
-951 -952 955 0
-954 0
86 87 88 89 90 0
-956 0
-86 957 0
-87 957 0
-86 -87 958 0
-88 959 0
-89 959 0
-88 -89 960 0
-90 961 0
-956 961 0
-90 -956 962 0
-959 963 0
-961 963 0
-959 -961 964 0
-960 965 0
-962 965 0
-960 -962 966 0
-964 967 0
-965 967 0
-964 -965 968 0
-957 969 0
-963 969 0
-957 -963 970 0
-958 971 0
-967 971 0
-958 -967 972 0
-970 973 0
-971 973 0
-970 -971 974 0
-973 0
131 132 133 134 135 0
-975 0
-131 976 0
-132 976 0
-131 -132 977 0
-133 978 0
-134 978 0
-133 -134 979 0
-135 980 0
-975 980 0
-135 -975 981 0
-978 982 0
-980 982 0
-978 -980 983 0
-979 984 0
-981 984 0
-979 -981 985 0
-983 986 0
-984 986 0
-983 -984 987 0
-976 988 0
-982 988 0
-976 -982 989 0
-977 990 0
-986 990 0
-977 -986 991 0
-989 992 0
-990 992 0
-989 -990 993 0
-992 0
310 319 328 0
-310 271 0
-319 280 0
-328 289 0
311 320 329 0
-311 272 0
-320 281 0
-329 290 0
312 321 330 0
-312 273 0
-321 282 0
-330 291 0
313 322 331 0
-313 274 0
-322 283 0
-331 292 0
314 323 332 0
-314 275 0
-323 284 0
-332 293 0
315 324 333 0
-315 276 0
-324 285 0
-333 294 0
316 325 334 0
-316 277 0
-325 286 0
-334 295 0
317 326 335 0
-317 278 0
-326 287 0
-335 296 0
181 -1 -319 51 0
-46 319 51 0
-181 51 0
182 -2 -319 52 0
-47 319 52 0
-182 52 0
183 -3 -319 53 0
-48 319 53 0
-183 53 0
184 -4 -319 54 0
-49 319 54 0
-184 54 0
185 -5 -319 55 0
-50 319 55 0
-185 55 0
226 -46 -328 96 0
-91 328 96 0
-226 96 0
227 -47 -328 97 0
-92 328 97 0
-227 97 0
228 -48 -328 98 0
-93 328 98 0
-228 98 0
229 -49 -328 99 0
-94 328 99 0
-229 99 0
230 -50 -328 100 0
-95 328 100 0
-230 100 0
-136 -310 7 0
-1 310 6 0
136 -1 6 0
-137 -310 8 0
-2 310 7 0
137 -2 7 0
-138 -310 9 0
-3 310 8 0
138 -3 8 0
-139 -310 10 0
-4 310 9 0
139 -4 9 0
-140 -310 6 0
-5 310 10 0
140 -5 10 0
186 -6 -320 56 0
-51 320 56 0
-186 56 0
187 -7 -320 57 0
-52 320 57 0
-187 57 0
188 -8 -320 58 0
-53 320 58 0
-188 58 0
189 -9 -320 59 0
-54 320 59 0
-189 59 0
190 -10 -320 60 0
-55 320 60 0
-190 60 0
231 -51 -329 101 0
-96 329 101 0
-231 101 0
232 -52 -329 102 0
-97 329 102 0
-232 102 0
233 -53 -329 103 0
-98 329 103 0
-233 103 0
234 -54 -329 104 0
-99 329 104 0
-234 104 0
235 -55 -329 105 0
-100 329 105 0
-235 105 0
-141 -311 12 0
-6 311 11 0
141 -6 11 0
-142 -311 13 0
-7 311 12 0
142 -7 12 0
-143 -311 14 0
-8 311 13 0
143 -8 13 0
-144 -311 15 0
-9 311 14 0
144 -9 14 0
-145 -311 11 0
-10 311 15 0
145 -10 15 0
191 -11 -321 61 0
-56 321 61 0
-191 61 0
192 -12 -321 62 0
-57 321 62 0
-192 62 0
193 -13 -321 63 0
-58 321 63 0
-193 63 0
194 -14 -321 64 0
-59 321 64 0
-194 64 0
195 -15 -321 65 0
-60 321 65 0
-195 65 0
236 -56 -330 106 0
-101 330 106 0
-236 106 0
237 -57 -330 107 0
-102 330 107 0
-237 107 0
238 -58 -330 108 0
-103 330 108 0
-238 108 0
239 -59 -330 109 0
-104 330 109 0
-239 109 0
240 -60 -330 110 0
-105 330 110 0
-240 110 0
-146 -312 17 0
-11 312 16 0
146 -11 16 0
-147 -312 18 0
-12 312 17 0
147 -12 17 0
-148 -312 19 0
-13 312 18 0
148 -13 18 0
-149 -312 20 0
-14 312 19 0
149 -14 19 0
-150 -312 16 0
-15 312 20 0
150 -15 20 0
196 -16 -322 66 0
-61 322 66 0
-196 66 0
197 -17 -322 67 0
-62 322 67 0
-197 67 0
198 -18 -322 68 0
-63 322 68 0
-198 68 0
199 -19 -322 69 0
-64 322 69 0
-199 69 0
200 -20 -322 70 0
-65 322 70 0
-200 70 0
241 -61 -331 111 0
-106 331 111 0
-241 111 0
242 -62 -331 112 0
-107 331 112 0
-242 112 0
243 -63 -331 113 0
-108 331 113 0
-243 113 0
244 -64 -331 114 0
-109 331 114 0
-244 114 0
245 -65 -331 115 0
-110 331 115 0
-245 115 0
-151 -313 22 0
-16 313 21 0
151 -16 21 0
-152 -313 23 0
-17 313 22 0
152 -17 22 0
-153 -313 24 0
-18 313 23 0
153 -18 23 0
-154 -313 25 0
-19 313 24 0
154 -19 24 0
-155 -313 21 0
-20 313 25 0
155 -20 25 0
201 -21 -323 71 0
-66 323 71 0
-201 71 0
202 -22 -323 72 0
-67 323 72 0
-202 72 0
203 -23 -323 73 0
-68 323 73 0
-203 73 0
204 -24 -323 74 0
-69 323 74 0
-204 74 0
205 -25 -323 75 0
-70 323 75 0
-205 75 0
246 -66 -332 116 0
-111 332 116 0
-246 116 0
247 -67 -332 117 0
-112 332 117 0
-247 117 0
248 -68 -332 118 0
-113 332 118 0
-248 118 0
249 -69 -332 119 0
-114 332 119 0
-249 119 0
250 -70 -332 120 0
-115 332 120 0
-250 120 0
-156 -314 27 0
-21 314 26 0
156 -21 26 0
-157 -314 28 0
-22 314 27 0
157 -22 27 0
-158 -314 29 0
-23 314 28 0
158 -23 28 0
-159 -314 30 0
-24 314 29 0
159 -24 29 0
-160 -314 26 0
-25 314 30 0
160 -25 30 0
206 -26 -324 76 0
-71 324 76 0
-206 76 0
207 -27 -324 77 0
-72 324 77 0
-207 77 0
208 -28 -324 78 0
-73 324 78 0
-208 78 0
209 -29 -324 79 0
-74 324 79 0
-209 79 0
210 -30 -324 80 0
-75 324 80 0
-210 80 0
251 -71 -333 121 0
-116 333 121 0
-251 121 0
252 -72 -333 122 0
-117 333 122 0
-252 122 0
253 -73 -333 123 0
-118 333 123 0
-253 123 0
254 -74 -333 124 0
-119 333 124 0
-254 124 0
255 -75 -333 125 0
-120 333 125 0
-255 125 0
-161 -315 32 0
-26 315 31 0
161 -26 31 0
-162 -315 33 0
-27 315 32 0
162 -27 32 0
-163 -315 34 0
-28 315 33 0
163 -28 33 0
-164 -315 35 0
-29 315 34 0
164 -29 34 0
-165 -315 31 0
-30 315 35 0
165 -30 35 0
211 -31 -325 81 0
-76 325 81 0
-211 81 0
212 -32 -325 82 0
-77 325 82 0
-212 82 0
213 -33 -325 83 0
-78 325 83 0
-213 83 0
214 -34 -325 84 0
-79 325 84 0
-214 84 0
215 -35 -325 85 0
-80 325 85 0
-215 85 0
256 -76 -334 126 0
-121 334 126 0
-256 126 0
257 -77 -334 127 0
-122 334 127 0
-257 127 0
258 -78 -334 128 0
-123 334 128 0
-258 128 0
259 -79 -334 129 0
-124 334 129 0
-259 129 0
260 -80 -334 130 0
-125 334 130 0
-260 130 0
-166 -316 37 0
-31 316 36 0
166 -31 36 0
-167 -316 38 0
-32 316 37 0
167 -32 37 0
-168 -316 39 0
-33 316 38 0
168 -33 38 0
-169 -316 40 0
-34 316 39 0
169 -34 39 0
-170 -316 36 0
-35 316 40 0
170 -35 40 0
216 -36 -326 86 0
-81 326 86 0
-216 86 0
217 -37 -326 87 0
-82 326 87 0
-217 87 0
218 -38 -326 88 0
-83 326 88 0
-218 88 0
219 -39 -326 89 0
-84 326 89 0
-219 89 0
220 -40 -326 90 0
-85 326 90 0
-220 90 0
261 -81 -335 131 0
-126 335 131 0
-261 131 0
262 -82 -335 132 0
-127 335 132 0
-262 132 0
263 -83 -335 133 0
-128 335 133 0
-263 133 0
264 -84 -335 134 0
-129 335 134 0
-264 134 0
265 -85 -335 135 0
-130 335 135 0
-265 135 0
-171 -317 42 0
-36 317 41 0
171 -36 41 0
-172 -317 43 0
-37 317 42 0
172 -37 42 0
-173 -317 44 0
-38 317 43 0
173 -38 43 0
-174 -317 45 0
-39 317 44 0
174 -39 44 0
-175 -317 41 0
-40 317 45 0
175 -40 45 0
-136 1 0
-136 91 0
136 -1 -91 0
-137 2 0
-137 92 0
137 -2 -92 0
-138 3 0
-138 93 0
138 -3 -93 0
-139 4 0
-139 94 0
139 -4 -94 0
-140 5 0
-140 95 0
140 -5 -95 0
-181 46 0
-181 1 0
181 -46 -1 0
-182 47 0
-182 2 0
182 -47 -2 0
-183 48 0
-183 3 0
183 -48 -3 0
-184 49 0
-184 4 0
184 -49 -4 0
-185 50 0
-185 5 0
185 -50 -5 0
-226 91 0
-226 46 0
226 -91 -46 0
-227 92 0
-227 47 0
227 -92 -47 0
-228 93 0
-228 48 0
228 -93 -48 0
-229 94 0
-229 49 0
229 -94 -49 0
-230 95 0
-230 50 0
230 -95 -50 0
-141 6 0
-141 96 0
141 -6 -96 0
-142 7 0
-142 97 0
142 -7 -97 0
-143 8 0
-143 98 0
143 -8 -98 0
-144 9 0
-144 99 0
144 -9 -99 0
-145 10 0
-145 100 0
145 -10 -100 0
-186 51 0
-186 6 0
186 -51 -6 0
-187 52 0
-187 7 0
187 -52 -7 0
-188 53 0
-188 8 0
188 -53 -8 0
-189 54 0
-189 9 0
189 -54 -9 0
-190 55 0
-190 10 0
190 -55 -10 0
-231 96 0
-231 51 0
231 -96 -51 0
-232 97 0
-232 52 0
232 -97 -52 0
-233 98 0
-233 53 0
233 -98 -53 0
-234 99 0
-234 54 0
234 -99 -54 0
-235 100 0
-235 55 0
235 -100 -55 0
-146 11 0
-146 101 0
146 -11 -101 0
-147 12 0
-147 102 0
147 -12 -102 0
-148 13 0
-148 103 0
148 -13 -103 0
-149 14 0
-149 104 0
149 -14 -104 0
-150 15 0
-150 105 0
150 -15 -105 0
-191 56 0
-191 11 0
191 -56 -11 0
-192 57 0
-192 12 0
192 -57 -12 0
-193 58 0
-193 13 0
193 -58 -13 0
-194 59 0
-194 14 0
194 -59 -14 0
-195 60 0
-195 15 0
195 -60 -15 0
-236 101 0
-236 56 0
236 -101 -56 0
-237 102 0
-237 57 0
237 -102 -57 0
-238 103 0
-238 58 0
238 -103 -58 0
-239 104 0
-239 59 0
239 -104 -59 0
-240 105 0
-240 60 0
240 -105 -60 0
-151 16 0
-151 106 0
151 -16 -106 0
-152 17 0
-152 107 0
152 -17 -107 0
-153 18 0
-153 108 0
153 -18 -108 0
-154 19 0
-154 109 0
154 -19 -109 0
-155 20 0
-155 110 0
155 -20 -110 0
-196 61 0
-196 16 0
196 -61 -16 0
-197 62 0
-197 17 0
197 -62 -17 0
-198 63 0
-198 18 0
198 -63 -18 0
-199 64 0
-199 19 0
199 -64 -19 0
-200 65 0
-200 20 0
200 -65 -20 0
-241 106 0
-241 61 0
241 -106 -61 0
-242 107 0
-242 62 0
242 -107 -62 0
-243 108 0
-243 63 0
243 -108 -63 0
-244 109 0
-244 64 0
244 -109 -64 0
-245 110 0
-245 65 0
245 -110 -65 0
-156 21 0
-156 111 0
156 -21 -111 0
-157 22 0
-157 112 0
157 -22 -112 0
-158 23 0
-158 113 0
158 -23 -113 0
-159 24 0
-159 114 0
159 -24 -114 0
-160 25 0
-160 115 0
160 -25 -115 0
-201 66 0
-201 21 0
201 -66 -21 0
-202 67 0
-202 22 0
202 -67 -22 0
-203 68 0
-203 23 0
203 -68 -23 0
-204 69 0
-204 24 0
204 -69 -24 0
-205 70 0
-205 25 0
205 -70 -25 0
-246 111 0
-246 66 0
246 -111 -66 0
-247 112 0
-247 67 0
247 -112 -67 0
-248 113 0
-248 68 0
248 -113 -68 0
-249 114 0
-249 69 0
249 -114 -69 0
-250 115 0
-250 70 0
250 -115 -70 0
-161 26 0
-161 116 0
161 -26 -116 0
-162 27 0
-162 117 0
162 -27 -117 0
-163 28 0
-163 118 0
163 -28 -118 0
-164 29 0
-164 119 0
164 -29 -119 0
-165 30 0
-165 120 0
165 -30 -120 0
-206 71 0
-206 26 0
206 -71 -26 0
-207 72 0
-207 27 0
207 -72 -27 0
-208 73 0
-208 28 0
208 -73 -28 0
-209 74 0
-209 29 0
209 -74 -29 0
-210 75 0
-210 30 0
210 -75 -30 0
-251 116 0
-251 71 0
251 -116 -71 0
-252 117 0
-252 72 0
252 -117 -72 0
-253 118 0
-253 73 0
253 -118 -73 0
-254 119 0
-254 74 0
254 -119 -74 0
-255 120 0
-255 75 0
255 -120 -75 0
-166 31 0
-166 121 0
166 -31 -121 0
-167 32 0
-167 122 0
167 -32 -122 0
-168 33 0
-168 123 0
168 -33 -123 0
-169 34 0
-169 124 0
169 -34 -124 0
-170 35 0
-170 125 0
170 -35 -125 0
-211 76 0
-211 31 0
211 -76 -31 0
-212 77 0
-212 32 0
212 -77 -32 0
-213 78 0
-213 33 0
213 -78 -33 0
-214 79 0
-214 34 0
214 -79 -34 0
-215 80 0
-215 35 0
215 -80 -35 0
-256 121 0
-256 76 0
256 -121 -76 0
-257 122 0
-257 77 0
257 -122 -77 0
-258 123 0
-258 78 0
258 -123 -78 0
-259 124 0
-259 79 0
259 -124 -79 0
-260 125 0
-260 80 0
260 -125 -80 0
-171 36 0
-171 126 0
171 -36 -126 0
-172 37 0
-172 127 0
172 -37 -127 0
-173 38 0
-173 128 0
173 -38 -128 0
-174 39 0
-174 129 0
174 -39 -129 0
-175 40 0
-175 130 0
175 -40 -130 0
-216 81 0
-216 36 0
216 -81 -36 0
-217 82 0
-217 37 0
217 -82 -37 0
-218 83 0
-218 38 0
218 -83 -38 0
-219 84 0
-219 39 0
219 -84 -39 0
-220 85 0
-220 40 0
220 -85 -40 0
-261 126 0
-261 81 0
261 -126 -81 0
-262 127 0
-262 82 0
262 -127 -82 0
-263 128 0
-263 83 0
263 -128 -83 0
-264 129 0
-264 84 0
264 -129 -84 0
-265 130 0
-265 85 0
265 -130 -85 0
-176 41 0
-176 131 0
176 -41 -131 0
-177 42 0
-177 132 0
177 -42 -132 0
-178 43 0
-178 133 0
178 -43 -133 0
-179 44 0
-179 134 0
179 -44 -134 0
-180 45 0
-180 135 0
180 -45 -135 0
-221 86 0
-221 41 0
221 -86 -41 0
-222 87 0
-222 42 0
222 -87 -42 0
-223 88 0
-223 43 0
223 -88 -43 0
-224 89 0
-224 44 0
224 -89 -44 0
-225 90 0
-225 45 0
225 -90 -45 0
-266 131 0
-266 86 0
266 -131 -86 0
-267 132 0
-267 87 0
267 -132 -87 0
-268 133 0
-268 88 0
268 -133 -88 0
-269 134 0
-269 89 0
269 -134 -89 0
-270 135 0
-270 90 0
270 -135 -90 0
-271 136 137 138 139 140 0
-280 -181 0
-280 -182 0
-280 -183 0
-280 -184 0
-280 -185 0
-289 -226 0
-289 -227 0
-289 -228 0
-289 -229 0
-289 -230 0
-272 141 142 143 144 145 0
-281 -186 0
-281 -187 0
-281 -188 0
-281 -189 0
-281 -190 0
-290 -231 0
-290 -232 0
-290 -233 0
-290 -234 0
-290 -235 0
-273 146 147 148 149 150 0
-282 -191 0
-282 -192 0
-282 -193 0
-282 -194 0
-282 -195 0
-291 -236 0
-291 -237 0
-291 -238 0
-291 -239 0
-291 -240 0
-274 151 152 153 154 155 0
-283 -196 0
-283 -197 0
-283 -198 0
-283 -199 0
-283 -200 0
-292 -241 0
-292 -242 0
-292 -243 0
-292 -244 0
-292 -245 0
-275 156 157 158 159 160 0
-284 -201 0
-284 -202 0
-284 -203 0
-284 -204 0
-284 -205 0
-293 -246 0
-293 -247 0
-293 -248 0
-293 -249 0
-293 -250 0
-276 161 162 163 164 165 0
-285 -206 0
-285 -207 0
-285 -208 0
-285 -209 0
-285 -210 0
-294 -251 0
-294 -252 0
-294 -253 0
-294 -254 0
-294 -255 0
-277 166 167 168 169 170 0
-286 -211 0
-286 -212 0
-286 -213 0
-286 -214 0
-286 -215 0
-295 -256 0
-295 -257 0
-295 -258 0
-295 -259 0
-295 -260 0
-278 171 172 173 174 175 0
-287 -216 0
-287 -217 0
-287 -218 0
-287 -219 0
-287 -220 0
-296 -261 0
-296 -262 0
-296 -263 0
-296 -264 0
-296 -265 0
-279 176 177 178 179 180 0
-288 -221 0
-288 -222 0
-288 -223 0
-288 -224 0
-288 -225 0
-297 -266 0
-297 -267 0
-297 -268 0
-297 -269 0
-297 -270 0
338 339 340 341 342 343 344 345 0
351 352 353 354 355 -338 0
396 397 398 399 400 -338 0
441 442 443 444 445 -338 0
356 357 358 359 360 -339 0
401 402 403 404 405 -339 0
446 447 448 449 450 -339 0
361 362 363 364 365 -340 0
406 407 408 409 410 -340 0
451 452 453 454 455 -340 0
366 367 368 369 370 -341 0
411 412 413 414 415 -341 0
456 457 458 459 460 -341 0
371 372 373 374 375 -342 0
416 417 418 419 420 -342 0
461 462 463 464 465 -342 0
376 377 378 379 380 -343 0
421 422 423 424 425 -343 0
466 467 468 469 470 -343 0
381 382 383 384 385 -344 0
426 427 428 429 430 -344 0
471 472 473 474 475 -344 0
386 387 388 389 390 -345 0
431 432 433 434 435 -345 0
476 477 478 479 480 -345 0
1 -351 0
6 -351 0
2 -352 0
7 -352 0
3 -353 0
8 -353 0
4 -354 0
9 -354 0
5 -355 0
10 -355 0
46 -396 0
51 -396 0
47 -397 0
52 -397 0
48 -398 0
53 -398 0
49 -399 0
54 -399 0
50 -400 0
55 -400 0
91 -441 0
96 -441 0
92 -442 0
97 -442 0
93 -443 0
98 -443 0
94 -444 0
99 -444 0
95 -445 0
100 -445 0
1 -356 0
11 -356 0
2 -357 0
12 -357 0
3 -358 0
13 -358 0
4 -359 0
14 -359 0
5 -360 0
15 -360 0
46 -401 0
56 -401 0
47 -402 0
57 -402 0
48 -403 0
58 -403 0
49 -404 0
59 -404 0
50 -405 0
60 -405 0
91 -446 0
101 -446 0
92 -447 0
102 -447 0
93 -448 0
103 -448 0
94 -449 0
104 -449 0
95 -450 0
105 -450 0
1 -361 0
16 -361 0
2 -362 0
17 -362 0
3 -363 0
18 -363 0
4 -364 0
19 -364 0
5 -365 0
20 -365 0
46 -406 0
61 -406 0
47 -407 0
62 -407 0
48 -408 0
63 -408 0
49 -409 0
64 -409 0
50 -410 0
65 -410 0
91 -451 0
106 -451 0
92 -452 0
107 -452 0
93 -453 0
108 -453 0
94 -454 0
109 -454 0
95 -455 0
110 -455 0
1 -366 0
21 -366 0
2 -367 0
22 -367 0
3 -368 0
23 -368 0
4 -369 0
24 -369 0
5 -370 0
25 -370 0
46 -411 0
66 -411 0
47 -412 0
67 -412 0
48 -413 0
68 -413 0
49 -414 0
69 -414 0
50 -415 0
70 -415 0
91 -456 0
111 -456 0
92 -457 0
112 -457 0
93 -458 0
113 -458 0
94 -459 0
114 -459 0
95 -460 0
115 -460 0
1 -371 0
26 -371 0
2 -372 0
27 -372 0
3 -373 0
28 -373 0
4 -374 0
29 -374 0
5 -375 0
30 -375 0
46 -416 0
71 -416 0
47 -417 0
72 -417 0
48 -418 0
73 -418 0
49 -419 0
74 -419 0
50 -420 0
75 -420 0
91 -461 0
116 -461 0
92 -462 0
117 -462 0
93 -463 0
118 -463 0
94 -464 0
119 -464 0
95 -465 0
120 -465 0
1 -376 0
31 -376 0
2 -377 0
32 -377 0
3 -378 0
33 -378 0
4 -379 0
34 -379 0
5 -380 0
35 -380 0
46 -421 0
76 -421 0
47 -422 0
77 -422 0
48 -423 0
78 -423 0
49 -424 0
79 -424 0
50 -425 0
80 -425 0
91 -466 0
121 -466 0
92 -467 0
122 -467 0
93 -468 0
123 -468 0
94 -469 0
124 -469 0
95 -470 0
125 -470 0
1 -381 0
36 -381 0
2 -382 0
37 -382 0
3 -383 0
38 -383 0
4 -384 0
39 -384 0
5 -385 0
40 -385 0
46 -426 0
81 -426 0
47 -427 0
82 -427 0
48 -428 0
83 -428 0
49 -429 0
84 -429 0
50 -430 0
85 -430 0
91 -471 0
126 -471 0
92 -472 0
127 -472 0
93 -473 0
128 -473 0
94 -474 0
129 -474 0
95 -475 0
130 -475 0
1 -386 0
41 -386 0
2 -387 0
42 -387 0
3 -388 0
43 -388 0
4 -389 0
44 -389 0
5 -390 0
45 -390 0
46 -431 0
86 -431 0
47 -432 0
87 -432 0
48 -433 0
88 -433 0
49 -434 0
89 -434 0
50 -435 0
90 -435 0
91 -476 0
131 -476 0
92 -477 0
132 -477 0
93 -478 0
133 -478 0
94 -479 0
134 -479 0
95 -480 0
135 -480 0
-994 0
271 995 0
280 995 0
271 280 996 0
289 997 0
-994 997 0
289 -994 998 0
-995 999 0
-997 999 0
-995 -997 1000 0
-996 1001 0
-998 1001 0
-996 -998 1002 0
-1000 1003 0
-1001 1003 0
-1000 -1001 1004 0
-1003 0
-280 -181 0
-280 -182 0
-280 -183 0
-280 -184 0
-280 -185 0
280 181 182 183 184 185 0
-289 -226 0
-289 -227 0
-289 -228 0
-289 -229 0
-289 -230 0
289 226 227 228 229 230 0
-281 -186 0
-281 -187 0
-281 -188 0
-281 -189 0
-281 -190 0
281 186 187 188 189 190 0
-290 -231 0
-290 -232 0
-290 -233 0
-290 -234 0
-290 -235 0
290 231 232 233 234 235 0
-282 -191 0
-282 -192 0
-282 -193 0
-282 -194 0
-282 -195 0
282 191 192 193 194 195 0
-291 -236 0
-291 -237 0
-291 -238 0
-291 -239 0
-291 -240 0
291 236 237 238 239 240 0
-283 -196 0
-283 -197 0
-283 -198 0
-283 -199 0
-283 -200 0
283 196 197 198 199 200 0
-292 -241 0
-292 -242 0
-292 -243 0
-292 -244 0
-292 -245 0
292 241 242 243 244 245 0
-284 -201 0
-284 -202 0
-284 -203 0
-284 -204 0
-284 -205 0
284 201 202 203 204 205 0
-293 -246 0
-293 -247 0
-293 -248 0
-293 -249 0
-293 -250 0
293 246 247 248 249 250 0
-285 -206 0
-285 -207 0
-285 -208 0
-285 -209 0
-285 -210 0
285 206 207 208 209 210 0
-294 -251 0
-294 -252 0
-294 -253 0
-294 -254 0
-294 -255 0
294 251 252 253 254 255 0
-286 -211 0
-286 -212 0
-286 -213 0
-286 -214 0
-286 -215 0
286 211 212 213 214 215 0
-295 -256 0
-295 -257 0
-295 -258 0
-295 -259 0
-295 -260 0
295 256 257 258 259 260 0
-287 -216 0
-287 -217 0
-287 -218 0
-287 -219 0
-287 -220 0
287 216 217 218 219 220 0
-296 -261 0
-296 -262 0
-296 -263 0
-296 -264 0
-296 -265 0
296 261 262 263 264 265 0
-288 -221 0
-288 -222 0
-288 -223 0
-288 -224 0
-288 -225 0
288 221 222 223 224 225 0
-297 -266 0
-297 -267 0
-297 -268 0
-297 -269 0
-297 -270 0
297 266 267 268 269 270 0
307 308 309 0
271 -307 0
-310 -307 0
280 -308 0
-319 -308 0
289 -309 0
-328 -309 0
